81 91874
30 25 74 34 65 61 3 66 50 67 23 19 15 33 69 21 17 9 81 60 14 4 38 49 41 6 48 39 12 32 26 37 44 70 56 31 80 46 35 2 51 11 13 42 52 63 28 79 64 18 58 7 27 68 29 72 75 73 20 77 76 62 57 40 10 71 24 59 22 1 5 45 47 8 53 54 43 16 36 55 78 
